50 8
915 474
309 624
351 344
912 392
668 309
322 129
762 212
681 48
153 181
781 741
749 757
285 701
375 664
612 860
656 226
447 65
565 822
529 669
303 743
484 672
540 76
397 722
327 151
322 43
193 175
68 330
614 863
406 73
337 115
320 171
678 755
410 598
895 675
637 248
682 802
411 603
313 573
465 519
388 521
403 288
529 883
636 263
404 603
296 206
756 934
264 680
843 497
336 264
400 194
745 358
